10
-1 39 58 4 30 77 6 73 86 21
45 -1 72 70 29 77 73 97 12 86
90 61 -1 55 67 55 74 31 52 50
50 41 24 -1 30 7 91 7 37 57
87 53 83 45 -1 9 58 21 88 22
46 6 30 13 68 -1 62 55 10 59
24 37 48 83 95 41 -1 50 91 36
74 20 96 21 48 99 68 -1 81 34
53 99 18 38 88 27 67 28 -1 48
83 7 21 10 17 13 14 9 16 -1
